/*********************************************
 * OPL 12.6.0.0 Data
 * Author: Adrian Rodriguez Bazaga, Pau Rodriguez Esmerats
 * Creation Date: 06/12/2017 at 23:05:02
 *********************************************/

nNurses=347;
maxConsec=2;
maxPresence=7;
maxHours=5;
minHours=1;
hours=24;
demand= [54 55 72 81 55 72 81 57 53 33 6 11 10 16 12 14 9 10 6 5 56 113 59 76  ];
